data;

set A := 391 267 282 657 151 469 814 687 351 794 504 812 1 283 291 530 327 760 348 402 288 22 567 296 746 34 206 804 653 756 42 255 710 109 263 818 712 416 708 514 948 780 392 534 762 807 510 806 869 444 257 470 379 942 952 8 482 914 491 885 580 737 523 268;
param T := 16000;

end;
